language Essence 1.3

letting class be function(1 --> 1, 2 --> 1, 3 --> 1, 4 --> 1, 5 --> 1)
letting deck_length be 31
letting deck_width be 83
letting length be function(1 --> 27, 2 --> 7, 3 --> 1, 4 --> 1, 5 --> 8)
letting n_classes be 1
letting n_containers be 5
letting separation be function()
letting width be function(1 --> 9, 2 --> 31, 3 --> 74, 4 --> 81, 5 --> 21)
